This is Ipopt version 3.13.4, running with linear solver ma27.

Number of nonzeros in equality constraint Jacobian...:   430009
Number of nonzeros in inequality constraint Jacobian.:        0
Number of nonzeros in Lagrangian Hessian.............:   590006

Total number of variables............................:   130009
                     variables with only lower bounds:        0
                variables with lower and upper bounds:        0
                     variables with only upper bounds:        0
Total number of equality constraints.................:    90009
Total number of inequality constraints...............:        0
        inequality constraints with only lower bounds:        0
   inequality constraints with lower and upper bounds:        0
        inequality constraints with only upper bounds:        0

iter    objective    inf_pr   inf_du lg(mu)  ||d||  lg(rg) alpha_du alpha_pr  ls
   0  1.9367707e+04 9.80e-02 1.00e+02  -1.0 0.00e+00    -  0.00e+00 0.00e+00   0
   1  6.0269260e+04 2.38e-07 7.84e+03  -1.0 1.03e+01    -  1.00e+00 1.00e+00h  1
   2  6.0268027e+04 2.94e-13 9.85e-01  -1.0 9.85e-05   4.0 1.00e+00 1.00e+00f  1
   3  4.7774697e+04 1.39e-04 1.48e-02  -1.7 2.00e+00    -  1.00e+00 1.00e+00f  1
   4  4.7775573e+04 1.62e-07 1.91e-05  -3.8 6.46e-02    -  1.00e+00 1.00e+00h  1
   5  4.7775574e+04 2.48e-13 2.56e-11  -5.7 2.73e-05    -  1.00e+00 1.00e+00h  1

Number of Iterations....: 5

                                   (scaled)                 (unscaled)
Objective...............:   2.3885398402420989e+04    4.7775573884522462e+04
Dual infeasibility......:   2.5599439235080013e-11    5.1203998358007041e-11
Constraint violation....:   2.4825801137051684e-13    2.4825801137051684e-13
Complementarity.........:   0.0000000000000000e+00    0.0000000000000000e+00
Overall NLP error.......:   2.5599439235080013e-11    5.1203998358007041e-11


Number of objective function evaluations             = 6
Number of objective gradient evaluations             = 6
Number of equality constraint evaluations            = 6
Number of inequality constraint evaluations          = 0
Number of equality constraint Jacobian evaluations   = 6
Number of inequality constraint Jacobian evaluations = 0
Number of Lagrangian Hessian evaluations             = 5
Total CPU secs in IPOPT (w/o function evaluations)   =      0.624
Total CPU secs in NLP function evaluations           =      0.768

EXIT: Optimal Solution Found.
